##TITLE= List of Points
##JCAMP-DX= 5.0
##DATA TYPE= LINK
##BLOCKS= 1 $$ is the number of fits or point lists
##ORIGIN= Bruker BioSpin GmbH
##OWNER= <Tian>
$$ 2024-05-29 12:58:02.375 +0200  nmrsu@TUD11508
$$ D:/Tian/data/Tian/nmr/240815_LNS0p45_JLP/79/pdata/1/t1t2.dx
##XUNITS= sec
##YUNITS= a.u.
##MINX=  1.000000e+001
##MAXX=  4.000000e+005
##MINY=  0.000000e+000
##MAXY=  1.000000e+000
##TITLE= Peak No. 1 at 28.158 ppm, expdec, I[0][1] = 3.871e-001, T[1] =10202.919s, I[0][2] = 3.869e-001, T[2] =16089.783s
##JCAMP-DX= 5.0
##DATA TYPE= Relaxation Data
$$
##$FITFKT= expdec( 3.871197e-001,  1.020292e+004)
$$
##$FITFKT= expdec( 3.869155e-001,  1.608978e+004)
$$
##NPOINTS= 26
##XYPOINTS= (XY..XY)
1.000e+001, 1.000000e+000
2.000e+001, 8.119092e-001
3.000e+001, 7.527407e-001
4.000e+001, 7.979320e-001
5.000e+001, 7.666324e-001
6.000e+001, 7.881017e-001
1.000e+002, 7.892467e-001
2.000e+002, 7.605587e-001
3.000e+002, 7.513487e-001
5.000e+002, 7.253535e-001
7.500e+002, 6.883001e-001
1.000e+003, 6.698260e-001
1.500e+003, 6.385560e-001
2.000e+003, 5.988030e-001
2.500e+003, 5.598908e-001
3.000e+003, 5.515337e-001
5.000e+003, 4.793786e-001
7.500e+003, 4.041704e-001
1.000e+004, 3.692070e-001
1.200e+004, 3.277346e-001
2.500e+004, 2.133842e-001
4.000e+004, 1.434973e-001
6.000e+004, 1.015748e-001
1.000e+005, 4.657144e-002
2.000e+005, 2.051809e-002
4.000e+005, 1.057044e-002
##END= $$ End of List for Peak No. 1
##END= $$ End of List of Points
